solution status: optimal solution found
objective value:                                   10
one.thingy.devices[0].thingy.vs2_y                   18 	(obj:0)
one.thingy.devices[0].thingy.vs2_z                   14 	(obj:0)
one.thingy.devices[3].thingy.circulate1_y                   15 	(obj:0)
one.thingy.devices[3].thingy.circulate1_z                   18 	(obj:0)
one.pump_b[1].flush_y                              13 	(obj:0)
one.pump_b[1].flush_z                              13 	(obj:0)
one.thingy.devices[1].thingy.vs2_y                   16 	(obj:0)
one.thingy.devices[1].thingy.vs2_z                   14 	(obj:0)
one.thingy.devices[2].thingy.vs2_y                   16 	(obj:0)
one.thingy.devices[2].thingy.vs2_z                   15 	(obj:0)
one.thingy.devices[2].thingy.circulate1_y                   15 	(obj:0)
one.thingy.devices[2].thingy.circulate1_z                   15 	(obj:0)
one.pump_a[2].hole_y                               15 	(obj:0)
one.pump_a[2].hole_z                               12 	(obj:0)
one.thingy.devices[3].thingy.vs2_y                   17 	(obj:0)
one.thingy.devices[3].thingy.vs2_z                   17 	(obj:0)
one.pump_b[1].hole_y                               14 	(obj:0)
one.pump_b[1].hole_z                               10 	(obj:0)
one.thingy.devices[1].thingy.circulate1_y                   15 	(obj:0)
one.thingy.devices[1].thingy.circulate1_z                   16 	(obj:0)
one.pump_a[2].flush_y                              11 	(obj:0)
one.pump_a[2].flush_z                              14 	(obj:0)
one.thingy.devices[0].thingy.circulate1_y                   19 	(obj:0)
one.thingy.devices[0].thingy.circulate1_z                   16 	(obj:0)
x27                                                 2 	(obj:1)
x30                                                 2 	(obj:1)
x40                                                 2 	(obj:1)
x46                                                 2 	(obj:1)
x52                                                 1 	(obj:1)
x56                                                 1 	(obj:1)
